SDVRP instances/custom_instances/p01_30_splitx10_0.vrp
NAME:p01_30_splitx10_
BEST_KNOWN: 0
COMMENT: 0
DIMENSION: 267
CAPACITY: 1600
EDGE_WEIGHT_FORMAT: FUNCTION
EDGE_WEIGHT_TYPE: EXACT_2D
NODE_COORD_SECTION
1 0.00000 0.00000
2 28 33
3 28 33
4 28 33
5 28 33
6 28 33
7 28 33
8 28 33
9 28 33
10 -3 3
11 -3 3
12 -3 3
13 -3 3
14 -3 3
15 -17 1
16 -17 1
17 -17 1
18 -17 1
19 -17 1
20 -17 1
21 -17 1
22 8 45
23 8 45
24 8 45
25 8 45
26 -33 3
27 -33 3
28 -33 3
29 -33 3
30 -33 3
31 -33 3
32 -33 3
33 -49 -5
34 -49 -5
35 -49 -5
36 -49 -5
37 -49 -5
38 19 -22
39 4 29
40 4 29
41 4 29
42 49 -46
43 49 -46
44 49 -46
45 49 -46
46 49 -46
47 49 -46
48 49 -46
49 -8 -9
50 -8 -9
51 -8 -9
52 -35 19
53 -35 19
54 -35 19
55 -35 19
56 -35 19
57 -35 19
58 45 42
59 45 42
60 45 42
61 45 42
62 45 42
63 45 42
64 45 42
65 13 6
66 13 6
67 13 6
68 13 6
69 13 6
70 13 6
71 39 -27
72 39 -27
73 39 -27
74 39 -27
75 39 -27
76 38 30
77 38 30
78 38 30
79 38 30
80 38 30
81 38 30
82 -26 36
83 -26 36
84 -26 36
85 -26 36
86 -26 36
87 -26 36
88 29 31
89 29 31
90 29 31
91 29 31
92 29 31
93 29 31
94 29 31
95 -38 36
96 -38 36
97 -38 36
98 -38 36
99 -38 36
100 -38 36
101 2 6
102 2 6
103 2 6
104 2 6
105 2 6
106 2 6
107 2 6
108 -9 49
109 -9 49
110 -9 49
111 -9 49
112 -9 49
113 -9 49
114 -9 49
115 -22 34
116 -22 34
117 -22 34
118 -22 34
119 -22 34
120 -22 34
121 -22 34
122 -5 -14
123 -5 -14
124 -5 -14
125 -5 -14
126 -5 -14
127 -5 -14
128 -5 -14
129 43 -50
130 43 -50
131 43 -50
132 43 -50
133 43 -50
134 43 -50
135 23 32
136 23 32
137 23 32
138 23 32
139 23 32
140 23 32
141 20 -7
142 20 -7
143 20 -7
144 20 -7
145 -13 32
146 -13 32
147 -13 32
148 -13 32
149 -13 32
150 -13 32
151 33 -16
152 33 -16
153 33 -16
154 20 34
155 20 34
156 20 34
157 20 34
158 20 34
159 -35 -44
160 -35 -44
161 -35 -44
162 -35 -44
163 -35 -44
164 -16 48
165 -16 48
166 -16 48
167 -16 48
168 -16 48
169 -16 48
170 -16 48
171 30 -44
172 30 -44
173 30 -44
174 30 -44
175 30 -44
176 30 -44
177 34 -34
178 34 -34
179 34 -34
180 42 -13
181 42 -13
182 42 -13
183 42 -13
184 42 -13
185 -22 45
186 -22 45
187 -22 45
188 -22 45
189 22 9
190 22 9
191 22 9
192 22 9
193 -2 0
194 -2 0
195 -2 0
196 -2 0
197 -2 0
198 -2 0
199 -2 0
200 6 -50
201 6 -50
202 6 -50
203 6 -50
204 6 -50
205 6 -50
206 36 30
207 36 30
208 36 30
209 36 30
210 36 30
211 -47 31
212 -47 31
213 -47 31
214 -47 31
215 -47 31
216 -47 31
217 -23 -43
218 -23 -43
219 -23 -13
220 -23 -13
221 -23 -13
222 25 42
223 25 42
224 25 42
225 25 42
226 25 42
227 25 42
228 25 42
229 29 44
230 29 44
231 29 44
232 29 44
233 29 44
234 29 44
235 29 44
236 11 -25
237 11 -25
238 11 -25
239 11 -25
240 -1 -36
241 -1 -36
242 6 -2
243 6 -2
244 6 -2
245 6 -2
246 -8 13
247 -8 13
248 -8 13
249 -8 13
250 -8 13
251 -8 13
252 -28 38
253 -28 38
254 -28 38
255 -28 38
256 30 -40
257 30 -40
258 30 -40
259 30 -40
260 30 -40
261 30 -40
262 30 -40
263 36 -35
264 36 -35
265 36 -35
266 36 -35
267 36 -35
DEMAND_SECTION
1 0
2 320
3 160
4 80
5 16
6 16
7 16
8 16
9 6
10 320
11 320
12 80
13 16
14 14
15 320
16 320
17 80
18 16
19 16
20 16
21 12
22 160
23 80
24 16
25 4
26 160
27 80
28 16
29 16
30 16
31 16
32 6
33 320
34 160
35 16
36 16
37 8
38 320
39 160
40 80
41 10
42 160
43 80
44 16
45 16
46 16
47 16
48 6
49 160
50 80
51 10
52 320
53 320
54 16
55 16
56 16
57 12
58 320
59 160
60 80
61 16
62 16
63 16
64 12
65 320
66 320
67 16
68 16
69 16
70 12
71 320
72 160
73 80
74 16
75 14
76 320
77 320
78 16
79 16
80 16
81 2
82 160
83 80
84 16
85 16
86 16
87 12
88 320
89 320
90 80
91 16
92 16
93 16
94 12
95 320
96 160
97 16
98 16
99 16
100 2
101 320
102 80
103 16
104 16
105 16
106 16
107 6
108 320
109 320
110 80
111 16
112 16
113 16
114 2
115 160
116 80
117 16
118 16
119 16
120 16
121 6
122 320
123 320
124 16
125 16
126 16
127 16
128 6
129 320
130 80
131 16
132 16
133 16
134 12
135 320
136 80
137 16
138 16
139 16
140 12
141 320
142 80
143 16
144 14
145 320
146 320
147 16
148 16
149 16
150 12
151 320
152 80
153 10
154 160
155 80
156 16
157 16
158 8
159 320
160 160
161 16
162 16
163 8
164 320
165 160
166 80
167 16
168 16
169 16
170 2
171 320
172 16
173 16
174 16
175 16
176 6
177 320
178 160
179 10
180 160
181 16
182 16
183 16
184 2
185 320
186 320
187 16
188 14
189 160
190 80
191 16
192 14
193 320
194 320
195 16
196 16
197 16
198 16
199 6
200 160
201 80
202 16
203 16
204 16
205 2
206 320
207 160
208 80
209 16
210 14
211 160
212 80
213 16
214 16
215 16
216 2
217 320
218 320
219 320
220 16
221 4
222 320
223 80
224 16
225 16
226 16
227 16
228 6
229 320
230 80
231 16
232 16
233 16
234 16
235 6
236 160
237 80
238 16
239 4
240 320
241 320
242 160
243 16
244 16
245 8
246 320
247 160
248 16
249 16
250 16
251 12
252 320
253 160
254 80
255 10
256 160
257 80
258 16
259 16
260 16
261 16
262 6
263 320
264 160
265 80
266 16
267 4
DEPOT_SECTION
1
-1
EOF