SDVRP instances/custom_instances/p01_30_splitx10_0.sol
266 -6 7 1 2 8 4 3 5 88 87 89 90 92 91 93 -11 12 9 10 13 192 197 194 198 193 195 196 -18 16 27 26 28 25 30 29 31 35 32 34 33 36 51 52 -37 151 150 152 179 181 180 182 183 142 143 141 140 242 243 241 244 -40 38 39 135 139 137 138 136 134 153 157 154 155 156 24 21 23 22 145 -49 50 217 216 159 158 160 161 162 219 218 220 -56 54 55 53 211 214 213 212 210 215 94 95 97 98 96 99 252 251 254 253 115 116 117 -59 58 62 63 60 61 57 234 229 231 228 232 230 233 227 223 224 225 226 221 222 -68 64 69 67 65 66 100 102 101 105 104 103 106 -73 70 71 74 72 262 263 176 178 177 -109 111 110 112 113 108 107 167 169 166 164 168 163 165 250 246 -119 120 118 114 82 83 85 86 81 84 185 184 186 187 147 148 146 149 144 -121 126 48 15 17 19 14 20 245 247 248 249 -127 122 125 124 123 240 239 202 200 199 201 204 203 238 237 236 235 -190 191 188 189 75 79 77 76 80 78 205 207 209 206 208 -260 255 261 257 258 259 256 173 171 175 172 174 170 129 132 128 133 130 131 42 45 46 44 43 47 41 264 265 266 0 





OBJ=
1581.436
BEST_KNOWN=
0.000